500 1984 
1 5 1
1 6 1
1 7 1
1 12 1
1 21 1
1 42 1
1 53 1
1 56 1
1 129 1
1 206 1
1 241 1
1 310 1
1 368 1
1 371 1
1 411 1
1 418 1
2 5 1
2 6 1
2 7 1
2 8 1
2 10 1
2 13 1
2 15 1
2 18 1
2 23 1
2 30 1
2 31 1
2 34 1
2 36 1
2 41 1
2 43 1
2 75 1
2 79 1
2 101 1
2 131 1
2 211 1
2 272 1
2 277 1
2 278 1
2 281 1
2 394 1
2 421 1
2 422 1
2 451 1
2 473 1
2 476 1
3 5 1
3 6 1
3 7 1
3 8 1
3 19 1
3 22 1
3 57 1
3 60 1
3 73 1
3 127 1
3 182 1
3 190 1
3 238 1
3 283 1
3 304 1
3 447 1
4 5 1
4 9 1
4 10 1
4 11 1
4 15 1
4 16 1
4 18 1
4 20 1
4 22 1
4 25 1
4 39 1
4 40 1
4 44 1
4 45 1
4 46 1
4 47 1
4 64 1
4 68 1
4 70 1
4 90 1
4 106 1
4 122 1
4 128 1
4 129 1
4 161 1
4 171 1
4 174 1
4 231 1
4 279 1
4 281 1
4 302 1
4 380 1
4 384 1
4 405 1
4 433 1
4 462 1
4 473 1
4 480 1
5 6 1
5 7 1
5 8 1
5 9 1
5 10 1
5 11 1
5 12 1
5 13 1
5 14 1
5 16 1
5 20 1
5 24 1
5 26 1
5 27 1
5 28 1
5 35 1
5 37 1
5 43 1
5 45 1
5 54 1
5 62 1
5 87 1
5 99 1
5 103 1
5 112 1
5 116 1
5 124 1
5 129 1
5 133 1
5 138 1
5 141 1
5 144 1
5 147 1
5 165 1
5 181 1
5 191 1
5 192 1
5 194 1
5 197 1
5 209 1
5 225 1
5 230 1
5 235 1
5 252 1
5 257 1
5 261 1
5 263 1
5 273 1
5 274 1
5 300 1
5 303 1
5 309 1
5 315 1
5 334 1
5 359 1
5 363 1
5 401 1
5 405 1
5 406 1
5 420 1
5 422 1
5 431 1
5 437 1
5 442 1
5 446 1
5 456 1
5 461 1
5 463 1
5 476 1
5 498 1
6 9 1
6 11 1
6 12 1
6 14 1
6 18 1
6 24 1
6 27 1
6 31 1
6 32 1
6 33 1
6 34 1
6 36 1
6 57 1
6 62 1
6 68 1
6 69 1
6 73 1
6 76 1
6 77 1
6 78 1
6 81 1
6 85 1
6 90 1
6 108 1
6 111 1
6 125 1
6 126 1
6 134 1
6 143 1
6 151 1
6 161 1
6 164 1
6 190 1
6 191 1
6 192 1
6 196 1
6 209 1
6 224 1
6 226 1
6 228 1
6 242 1
6 247 1
6 264 1
6 265 1
6 288 1
6 293 1
6 313 1
6 319 1
6 325 1
6 327 1
6 338 1
6 350 1
6 358 1
6 361 1
6 369 1
6 379 1
6 380 1
6 413 1
6 423 1
6 432 1
6 439 1
6 480 1
6 500 1
7 8 1
7 9 1
7 13 1
7 15 1
7 17 1
7 19 1
7 28 1
7 41 1
7 44 1
7 51 1
7 59 1
7 66 1
7 77 1
7 80 1
7 91 1
7 100 1
7 103 1
7 130 1
7 139 1
7 145 1
7 152 1
7 156 1
7 174 1
7 195 1
7 199 1
7 200 1
7 201 1
7 203 1
7 210 1
7 215 1
7 217 1
7 237 1
7 238 1
7 269 1
7 317 1
7 406 1
7 416 1
7 488 1
7 492 1
8 10 1
8 20 1
8 67 1
8 88 1
8 150 1
8 183 1
8 233 1
8 258 1
8 281 1
8 311 1
8 373 1
8 381 1
8 500 1
9 15 1
9 16 1
9 18 1
9 22 1
9 23 1
9 32 1
9 45 1
9 52 1
9 78 1
9 114 1
9 125 1
9 127 1
9 135 1
9 142 1
9 153 1
9 203 1
9 204 1
9 221 1
9 271 1
9 290 1
9 297 1
9 326 1
9 374 1
9 445 1
10 11 1
10 24 1
10 26 1
10 32 1
10 38 1
10 48 1
10 77 1
10 174 1
10 177 1
10 190 1
10 203 1
10 221 1
10 257 1
10 265 1
10 289 1
10 311 1
10 313 1
10 352 1
10 360 1
11 12 1
11 13 1
11 27 1
11 28 1
11 35 1
11 36 1
11 38 1
11 50 1
11 55 1
11 58 1
11 63 1
11 68 1
11 71 1
11 74 1
11 75 1
11 84 1
11 89 1
11 96 1
11 104 1
11 113 1
11 119 1
11 124 1
11 127 1
11 168 1
11 169 1
11 173 1
11 175 1
11 183 1
11 194 1
11 212 1
11 216 1
11 220 1
11 235 1
11 244 1
11 246 1
11 248 1
11 249 1
11 259 1
11 287 1
11 327 1
11 353 1
11 356 1
11 373 1
11 387 1
11 388 1
11 436 1
11 444 1
11 485 1
12 14 1
12 16 1
12 17 1
12 21 1
12 26 1
12 28 1
12 29 1
12 30 1
12 31 1
12 35 1
12 42 1
12 54 1
12 56 1
12 59 1
12 71 1
12 83 1
12 91 1
12 115 1
12 116 1
12 137 1
12 148 1
12 159 1
12 221 1
12 251 1
12 254 1
12 267 1
12 289 1
12 293 1
12 296 1
12 319 1
12 322 1
12 348 1
12 353 1
12 375 1
12 470 1
12 477 1
12 484 1
12 500 1
13 14 1
13 17 1
13 22 1
13 25 1
13 31 1
13 39 1
13 53 1
13 55 1
13 60 1
13 64 1
13 72 1
13 76 1
13 82 1
13 93 1
13 98 1
13 100 1
13 109 1
13 149 1
13 164 1
13 205 1
13 224 1
13 460 1
14 17 1
14 19 1
14 21 1
14 24 1
14 25 1
14 38 1
14 41 1
14 52 1
14 63 1
14 67 1
14 70 1
14 78 1
14 79 1
14 81 1
14 83 1
14 86 1
14 93 1
14 97 1
14 103 1
14 108 1
14 109 1
14 128 1
14 156 1
14 159 1
14 176 1
14 180 1
14 181 1
14 193 1
14 209 1
14 229 1
14 368 1
14 385 1
14 408 1
14 415 1
14 424 1
14 462 1
14 489 1
14 492 1
14 493 1
15 32 1
15 36 1
15 49 1
15 53 1
15 86 1
15 113 1
15 120 1
15 188 1
15 189 1
15 306 1
15 380 1
15 425 1
15 490 1
16 19 1
16 21 1
16 27 1
16 33 1
16 37 1
16 39 1
16 43 1
16 53 1
16 65 1
16 68 1
16 73 1
16 87 1
16 93 1
16 122 1
16 208 1
16 254 1
16 266 1
16 299 1
16 311 1
16 322 1
16 329 1
16 347 1
16 351 1
16 358 1
16 378 1
16 389 1
16 391 1
16 401 1
16 427 1
17 39 1
17 54 1
17 72 1
17 93 1
17 117 1
17 120 1
17 126 1
17 131 1
17 148 1
17 162 1
17 275 1
17 294 1
17 335 1
17 364 1
17 468 1
18 23 1
18 29 1
18 52 1
18 88 1
18 104 1
18 108 1
18 113 1
18 157 1
18 176 1
18 211 1
18 235 1
18 243 1
18 268 1
18 279 1
18 312 1
18 337 1
18 363 1
18 365 1
19 20 1
19 35 1
19 43 1
19 50 1
19 72 1
19 73 1
19 79 1
19 80 1
19 84 1
19 94 1
19 96 1
19 99 1
19 105 1
19 106 1
19 115 1
19 116 1
19 121 1
19 123 1
19 131 1
19 142 1
19 155 1
19 165 1
19 168 1
19 172 1
19 174 1
19 175 1
19 177 1
19 196 1
19 201 1
19 203 1
19 231 1
19 240 1
19 244 1
19 265 1
19 291 1
19 312 1
19 321 1
19 367 1
19 374 1
19 376 1
19 384 1
19 404 1
19 419 1
19 425 1
19 448 1
19 460 1
19 462 1
19 484 1
20 25 1
20 29 1
20 30 1
20 46 1
20 52 1
20 62 1
20 87 1
20 208 1
20 215 1
20 219 1
20 236 1
20 255 1
20 278 1
20 280 1
20 303 1
20 355 1
20 364 1
20 389 1
20 394 1
20 411 1
20 438 1
20 465 1
20 476 1
21 29 1
21 95 1
21 125 1
21 153 1
21 182 1
21 269 1
22 23 1
22 37 1
22 64 1
22 65 1
22 94 1
22 98 1
22 126 1
22 133 1
22 140 1
22 218 1
22 304 1
23 34 1
23 56 1
23 155 1
23 207 1
23 237 1
23 286 1
23 417 1
24 26 1
24 49 1
24 148 1
24 150 1
24 159 1
24 167 1
24 228 1
24 338 1
25 57 1
25 132 1
25 160 1
25 232 1
25 285 1
25 315 1
25 332 1
25 367 1
25 477 1
26 33 1
26 44 1
26 76 1
26 84 1
26 90 1
26 98 1
26 101 1
26 143 1
26 146 1
26 159 1
26 245 1
26 439 1
26 454 1
26 455 1
26 466 1
26 497 1
27 33 1
27 40 1
27 59 1
27 60 1
27 63 1
27 65 1
27 66 1
27 69 1
27 71 1
27 92 1
27 101 1
27 105 1
27 119 1
27 136 1
27 142 1
27 170 1
27 241 1
27 255 1
27 275 1
27 372 1
27 376 1
27 387 1
27 416 1
27 479 1
27 483 1
28 34 1
28 51 1
28 146 1
28 199 1
28 216 1
28 242 1
28 253 1
28 267 1
28 289 1
28 390 1
28 407 1
28 472 1
29 30 1
29 38 1
29 42 1
29 61 1
29 86 1
29 92 1
29 102 1
29 109 1
29 139 1
29 152 1
29 175 1
29 238 1
29 243 1
29 261 1
29 271 1
29 276 1
29 322 1
29 333 1
29 337 1
29 407 1
29 468 1
30 77 1
30 85 1
30 188 1
30 192 1
30 231 1
30 264 1
30 296 1
30 314 1
30 326 1
30 362 1
30 471 1
31 46 1
31 48 1
31 54 1
31 70 1
31 89 1
31 94 1
31 95 1
31 107 1
31 109 1
31 138 1
31 148 1
31 160 1
31 255 1
31 312 1
31 316 1
31 363 1
31 387 1
31 420 1
31 463 1
32 40 1
32 47 1
32 62 1
32 69 1
32 99 1
32 128 1
32 139 1
32 205 1
32 256 1
32 267 1
32 344 1
32 399 1
32 400 1
32 403 1
33 37 1
33 50 1
33 58 1
33 60 1
33 78 1
33 83 1
33 85 1
33 113 1
33 135 1
33 154 1
33 172 1
33 207 1
33 219 1
33 236 1
33 245 1
33 282 1
33 284 1
33 325 1
33 328 1
33 341 1
33 392 1
33 397 1
33 441 1
33 463 1
33 475 1
33 493 1
34 61 1
34 156 1
34 160 1
34 175 1
34 262 1
35 111 1
35 122 1
35 131 1
35 162 1
35 183 1
35 201 1
35 208 1
35 221 1
35 231 1
35 271 1
35 272 1
35 321 1
35 354 1
35 382 1
35 423 1
35 425 1
35 482 1
35 489 1
36 48 1
36 66 1
36 85 1
36 96 1
36 115 1
36 160 1
36 163 1
36 182 1
36 227 1
36 248 1
36 270 1
36 286 1
36 395 1
36 455 1
36 487 1
36 498 1
37 40 1
37 41 1
37 47 1
37 50 1
37 81 1
37 108 1
37 110 1
37 112 1
37 119 1
37 121 1
37 123 1
37 142 1
37 195 1
37 219 1
37 229 1
37 262 1
37 318 1
37 491 1
38 56 1
38 135 1
38 260 1
38 450 1
38 471 1
38 485 1
39 42 1
39 61 1
39 64 1
39 154 1
39 373 1
39 406 1
39 421 1
39 474 1
40 46 1
40 55 1
40 66 1
40 69 1
40 144 1
40 179 1
40 198 1
40 234 1
40 276 1
40 295 1
40 334 1
40 357 1
40 405 1
40 438 1
41 45 1
41 79 1
41 80 1
41 81 1
41 106 1
41 121 1
41 130 1
41 178 1
41 187 1
41 223 1
41 242 1
41 250 1
41 268 1
41 335 1
41 364 1
42 44 1
42 49 1
42 58 1
42 140 1
42 200 1
42 315 1
42 457 1
42 489 1
43 65 1
43 94 1
43 146 1
43 202 1
43 211 1
43 233 1
43 266 1
43 297 1
43 376 1
43 448 1
44 82 1
44 118 1
44 120 1
44 153 1
44 170 1
44 273 1
44 304 1
45 47 1
45 48 1
45 49 1
45 51 1
45 59 1
45 67 1
45 74 1
45 80 1
45 84 1
45 86 1
45 116 1
45 164 1
45 166 1
45 173 1
45 176 1
45 180 1
45 185 1
45 186 1
45 189 1
45 196 1
45 200 1
45 206 1
45 214 1
45 222 1
45 232 1
45 246 1
45 252 1
45 254 1
45 260 1
45 263 1
45 273 1
45 302 1
45 366 1
45 378 1
45 398 1
45 441 1
45 462 1
45 472 1
45 479 1
45 480 1
45 487 1
46 179 1
46 298 1
46 364 1
46 430 1
46 438 1
46 446 1
47 57 1
47 58 1
47 97 1
47 123 1
47 130 1
47 185 1
47 194 1
47 225 1
47 241 1
47 244 1
47 278 1
47 467 1
48 61 1
48 70 1
48 82 1
48 151 1
48 165 1
48 215 1
48 299 1
48 328 1
48 469 1
48 495 1
49 51 1
49 173 1
49 208 1
49 213 1
49 339 1
49 352 1
50 138 1
50 459 1
51 55 1
51 173 1
51 210 1
51 248 1
51 286 1
51 294 1
51 339 1
52 71 1
52 164 1
52 263 1
52 287 1
52 436 1
52 466 1
53 107 1
53 132 1
53 179 1
53 285 1
53 410 1
53 498 1
54 74 1
54 82 1
54 100 1
54 102 1
54 117 1
54 154 1
54 177 1
54 207 1
54 213 1
55 119 1
55 306 1
55 387 1
55 408 1
55 491 1
56 118 1
56 206 1
56 418 1
57 72 1
57 75 1
57 126 1
57 146 1
57 163 1
57 197 1
57 313 1
58 63 1
58 75 1
58 87 1
58 92 1
58 112 1
58 144 1
58 184 1
58 187 1
58 234 1
58 271 1
58 300 1
58 305 1
58 325 1
58 333 1
58 340 1
58 355 1
58 430 1
58 444 1
59 162 1
59 334 1
60 134 1
60 354 1
60 419 1
60 439 1
61 89 1
61 107 1
61 230 1
61 239 1
61 249 1
61 323 1
61 344 1
61 393 1
62 166 1
63 74 1
63 185 1
63 243 1
63 348 1
63 475 1
64 67 1
64 88 1
64 137 1
64 366 1
64 410 1
65 118 1
65 357 1
65 371 1
65 428 1
65 429 1
65 442 1
65 478 1
66 76 1
66 171 1
66 228 1
66 281 1
66 390 1
67 95 1
67 155 1
67 157 1
67 284 1
67 296 1
67 304 1
68 99 1
68 163 1
68 363 1
68 368 1
68 388 1
69 83 1
69 91 1
69 219 1
69 251 1
69 294 1
69 397 1
69 400 1
70 258 1
70 388 1
70 450 1
70 480 1
71 105 1
71 111 1
71 124 1
71 241 1
71 377 1
71 484 1
72 132 1
72 166 1
72 217 1
72 267 1
72 357 1
72 381 1
72 395 1
72 427 1
72 443 1
72 456 1
73 118 1
73 155 1
73 194 1
73 204 1
73 220 1
73 339 1
74 90 1
74 112 1
74 145 1
74 310 1
74 418 1
74 491 1
75 104 1
75 149 1
75 163 1
75 167 1
75 256 1
75 308 1
75 343 1
75 483 1
76 105 1
76 220 1
76 324 1
76 349 1
76 355 1
76 396 1
76 446 1
77 92 1
77 444 1
77 481 1
78 191 1
78 255 1
78 341 1
78 486 1
79 110 1
79 141 1
79 186 1
79 193 1
79 250 1
79 268 1
79 291 1
79 321 1
79 346 1
80 110 1
80 115 1
80 167 1
80 184 1
80 198 1
80 222 1
80 227 1
80 253 1
80 359 1
80 415 1
80 486 1
81 88 1
81 97 1
81 193 1
81 290 1
81 395 1
81 437 1
82 89 1
82 158 1
82 168 1
82 172 1
82 254 1
82 293 1
82 299 1
82 318 1
82 370 1
82 393 1
82 410 1
82 445 1
82 478 1
82 499 1
83 161 1
83 169 1
83 179 1
83 188 1
83 218 1
83 228 1
83 277 1
83 442 1
84 95 1
84 125 1
84 130 1
84 320 1
84 360 1
84 420 1
84 449 1
84 454 1
85 256 1
85 259 1
85 264 1
85 270 1
85 277 1
85 424 1
86 91 1
86 170 1
86 178 1
86 181 1
86 257 1
87 136 1
87 161 1
87 176 1
87 272 1
87 392 1
87 484 1
88 98 1
88 104 1
88 121 1
88 136 1
88 154 1
88 170 1
88 205 1
88 226 1
88 237 1
88 287 1
88 396 1
88 419 1
88 482 1
89 106 1
89 111 1
89 368 1
89 412 1
90 107 1
90 114 1
90 180 1
90 214 1
90 216 1
90 223 1
90 236 1
90 353 1
90 386 1
90 423 1
90 442 1
90 464 1
90 478 1
91 97 1
91 100 1
91 120 1
91 140 1
91 168 1
91 190 1
91 191 1
91 193 1
91 214 1
91 318 1
91 381 1
91 447 1
91 485 1
92 138 1
92 199 1
92 444 1
92 463 1
93 127 1
93 133 1
93 260 1
93 268 1
93 301 1
93 356 1
93 392 1
93 413 1
93 449 1
93 482 1
94 143 1
94 186 1
94 197 1
94 224 1
94 310 1
94 324 1
94 355 1
94 382 1
95 96 1
95 158 1
95 264 1
95 303 1
95 366 1
95 379 1
95 440 1
95 470 1
95 474 1
96 166 1
96 199 1
96 253 1
96 298 1
96 420 1
97 242 1
97 308 1
97 319 1
98 157 1
98 246 1
98 301 1
98 314 1
98 346 1
98 451 1
99 101 1
99 117 1
99 201 1
99 279 1
99 438 1
100 102 1
100 114 1
100 134 1
100 195 1
100 259 1
100 335 1
100 343 1
100 430 1
100 456 1
100 465 1
100 468 1
100 495 1
101 102 1
101 103 1
101 140 1
101 189 1
101 277 1
101 333 1
102 117 1
102 143 1
102 169 1
102 197 1
102 234 1
102 273 1
102 297 1
102 313 1
102 359 1
102 378 1
102 402 1
102 404 1
102 477 1
103 122 1
103 402 1
103 494 1
105 136 1
105 232 1
105 283 1
105 284 1
105 469 1
105 496 1
106 145 1
106 151 1
106 211 1
106 250 1
106 419 1
106 425 1
106 458 1
106 481 1
107 147 1
107 158 1
107 239 1
108 114 1
108 124 1
108 328 1
108 457 1
108 494 1
109 110 1
109 137 1
109 151 1
109 178 1
109 240 1
110 141 1
110 274 1
110 307 1
110 347 1
110 377 1
111 129 1
111 141 1
111 195 1
111 295 1
112 479 1
113 132 1
113 134 1
113 167 1
113 171 1
113 272 1
113 331 1
113 362 1
113 415 1
114 147 1
114 162 1
114 182 1
114 235 1
114 240 1
114 292 1
114 296 1
114 332 1
114 384 1
114 385 1
114 490 1
115 144 1
115 150 1
115 276 1
115 374 1
115 446 1
115 492 1
116 133 1
116 225 1
116 486 1
117 185 1
117 226 1
117 275 1
117 294 1
117 367 1
118 329 1
118 475 1
119 135 1
119 150 1
119 152 1
119 186 1
119 202 1
119 252 1
119 266 1
119 344 1
119 348 1
119 429 1
119 474 1
120 123 1
120 205 1
120 305 1
121 285 1
122 390 1
122 499 1
123 128 1
123 285 1
123 491 1
124 207 1
124 209 1
124 248 1
124 461 1
124 492 1
125 139 1
126 212 1
126 275 1
126 474 1
126 494 1
127 149 1
127 178 1
127 245 1
127 366 1
127 433 1
128 137 1
128 156 1
128 222 1
128 323 1
128 345 1
128 496 1
129 243 1
129 252 1
129 280 1
129 347 1
129 409 1
129 426 1
130 464 1
132 147 1
132 198 1
132 309 1
132 340 1
132 443 1
132 473 1
133 326 1
134 247 1
134 342 1
134 424 1
135 196 1
135 292 1
136 157 1
136 184 1
136 307 1
137 247 1
137 376 1
137 435 1
137 453 1
139 145 1
139 316 1
139 459 1
140 245 1
140 284 1
140 299 1
141 153 1
141 171 1
141 202 1
141 218 1
141 251 1
141 263 1
141 370 1
141 485 1
141 499 1
142 212 1
142 325 1
143 149 1
143 152 1
143 165 1
143 169 1
143 172 1
143 180 1
143 266 1
143 274 1
143 404 1
144 407 1
145 290 1
146 158 1
147 200 1
147 295 1
147 309 1
147 342 1
147 403 1
148 270 1
148 293 1
148 326 1
148 346 1
148 401 1
148 427 1
148 447 1
149 202 1
149 436 1
149 461 1
150 262 1
150 472 1
151 206 1
151 225 1
151 226 1
151 269 1
151 331 1
151 356 1
151 458 1
151 467 1
153 181 1
153 327 1
153 386 1
153 403 1
154 222 1
154 269 1
154 309 1
154 385 1
155 189 1
155 198 1
155 393 1
156 215 1
156 377 1
156 416 1
156 448 1
156 499 1
158 288 1
158 408 1
160 301 1
160 495 1
161 218 1
161 223 1
161 260 1
161 343 1
161 374 1
161 412 1
163 288 1
163 330 1
164 229 1
164 300 1
164 305 1
164 311 1
164 330 1
164 398 1
165 188 1
165 204 1
165 328 1
165 336 1
165 467 1
166 282 1
166 360 1
166 417 1
167 232 1
167 239 1
167 330 1
167 344 1
167 432 1
167 435 1
167 473 1
167 497 1
169 229 1
169 230 1
169 305 1
169 349 1
169 350 1
169 464 1
170 470 1
171 187 1
171 274 1
171 400 1
171 443 1
172 249 1
174 413 1
176 177 1
176 220 1
176 259 1
176 265 1
176 307 1
176 334 1
176 357 1
176 495 1
177 183 1
177 217 1
177 246 1
179 230 1
179 234 1
179 250 1
179 288 1
179 289 1
179 398 1
180 192 1
180 212 1
180 213 1
180 257 1
180 279 1
180 283 1
181 210 1
181 227 1
182 184 1
182 187 1
182 236 1
182 244 1
182 247 1
182 342 1
182 362 1
182 396 1
182 400 1
182 481 1
183 286 1
183 323 1
184 319 1
184 395 1
185 278 1
185 297 1
185 362 1
186 295 1
186 345 1
187 317 1
189 276 1
189 402 1
190 298 1
191 214 1
191 336 1
191 421 1
191 452 1
191 467 1
192 280 1
192 332 1
192 337 1
192 422 1
192 460 1
192 466 1
193 227 1
193 237 1
193 283 1
193 391 1
193 414 1
193 424 1
193 466 1
193 481 1
195 350 1
195 384 1
195 414 1
195 426 1
195 468 1
196 210 1
196 302 1
196 369 1
197 498 1
199 204 1
199 216 1
199 223 1
199 233 1
199 292 1
199 302 1
199 377 1
199 399 1
200 354 1
201 213 1
201 386 1
201 428 1
202 233 1
202 386 1
202 413 1
203 240 1
203 306 1
203 382 1
204 407 1
205 327 1
205 399 1
205 453 1
206 239 1
206 448 1
207 290 1
207 358 1
207 437 1
208 338 1
209 316 1
210 270 1
211 261 1
211 352 1
212 435 1
212 439 1
212 440 1
212 457 1
213 388 1
214 459 1
215 375 1
216 217 1
216 432 1
217 406 1
217 483 1
218 408 1
218 409 1
218 440 1
218 460 1
219 412 1
220 224 1
220 291 1
220 431 1
220 493 1
221 323 1
222 358 1
222 449 1
223 345 1
223 428 1
223 461 1
224 389 1
225 375 1
226 282 1
227 301 1
227 324 1
227 335 1
227 415 1
227 487 1
227 488 1
228 451 1
228 454 1
229 253 1
229 256 1
229 320 1
229 403 1
230 352 1
231 435 1
233 329 1
234 261 1
237 238 1
237 258 1
237 282 1
237 411 1
238 411 1
238 477 1
238 488 1
239 391 1
240 306 1
240 361 1
240 496 1
243 347 1
243 433 1
243 475 1
244 372 1
245 251 1
245 343 1
245 479 1
247 249 1
247 401 1
247 426 1
247 452 1
250 298 1
251 321 1
252 258 1
254 354 1
254 493 1
255 310 1
257 262 1
257 336 1
258 383 1
259 373 1
260 318 1
260 337 1
260 369 1
260 434 1
260 456 1
261 397 1
261 398 1
261 414 1
261 422 1
261 452 1
261 454 1
261 483 1
262 312 1
262 423 1
262 429 1
263 332 1
263 349 1
263 365 1
265 417 1
265 464 1
266 308 1
266 329 1
268 280 1
268 317 1
268 432 1
269 372 1
269 440 1
270 371 1
270 394 1
271 307 1
271 341 1
272 314 1
272 331 1
272 392 1
272 421 1
272 449 1
274 455 1
274 469 1
275 291 1
275 320 1
275 434 1
275 458 1
275 472 1
276 375 1
276 402 1
277 455 1
278 303 1
278 320 1
278 394 1
279 342 1
280 308 1
280 369 1
280 431 1
280 465 1
283 287 1
283 351 1
283 382 1
284 292 1
284 315 1
284 339 1
286 330 1
286 356 1
286 379 1
286 429 1
286 500 1
287 314 1
287 353 1
288 338 1
288 409 1
289 300 1
289 341 1
289 345 1
289 428 1
291 351 1
293 340 1
295 496 1
298 316 1
298 333 1
298 349 1
301 359 1
304 340 1
304 370 1
304 486 1
306 322 1
306 365 1
306 379 1
306 380 1
309 331 1
311 317 1
312 372 1
312 427 1
314 351 1
314 393 1
314 487 1
315 383 1
317 453 1
319 437 1
320 324 1
320 405 1
321 434 1
321 482 1
322 360 1
324 445 1
325 370 1
326 430 1
328 348 1
329 418 1
330 450 1
332 365 1
333 471 1
334 361 1
335 336 1
336 371 1
337 452 1
340 443 1
341 399 1
341 414 1
342 350 1
342 367 1
342 385 1
342 416 1
342 441 1
343 389 1
344 391 1
344 434 1
344 476 1
345 346 1
345 390 1
347 445 1
351 436 1
351 478 1
353 465 1
355 431 1
356 361 1
356 378 1
358 412 1
362 490 1
365 453 1
367 426 1
369 383 1
369 450 1
371 458 1
372 404 1
375 383 1
377 490 1
377 494 1
378 410 1
379 381 1
379 457 1
385 397 1
387 396 1
390 417 1
390 447 1
390 471 1
403 409 1
408 451 1
411 433 1
411 441 1
434 489 1
438 469 1
444 497 1
455 459 1
455 497 1
467 470 1
485 488 1
